param n := 60;
param c := 10000
param : V : p w :=
   0	  18	 366
   1	  12	 268
   2	  41	 366
   3	   3	 430
   4	  54	 263
   5	  54	 307
   6	  14	 414
   7	  33	 287
   8	  29	 299
   9	  93	 495
  10	  57	 251
  11	  84	 254
  12	  62	 474
  13	  35	 252
  14	  98	 274
  15	  54	 370
  16	  55	 269
  17	  23	 361
  18	  97	 473
  19	  70	 252
  20	  34	 275
  21	  10	 472
  22	  95	 259
  23	  70	 269
  24	  72	 444
  25	  98	 258
  26	  38	 298
  27	  46	 439
  28	  49	 273
  29	  13	 288
  30	  40	 445
  31	  66	 272
  32	  69	 283
  33	  61	 419
  34	  44	 261
  35	  99	 320
  36	  84	 363
  37	  33	 271
  38	  12	 366
  39	  73	 355
  40	  62	 273
  41	  36	 372
  42	  24	 466
  43	  73	 262
  44	  10	 272
  45	  58	 357
  46	   8	 292
  47	  86	 351
  48	  20	 395
  49	  65	 255
  50	  31	 350
  51	   2	 350
  52	  89	 303
  53	  91	 347
  54	  44	 450
  55	   1	 252
  56	  56	 298
  57	  40	 410
  58	  68	 275
  59	  92	 315
;

set E :=
   0	   2
   0	   3
   0	   4
   0	   5
   0	   7
   0	   8
   0	  10
   0	  12
   0	  13
   0	  18
   0	  19
   0	  20
   0	  24
   0	  25
   0	  26
   0	  27
   0	  28
   0	  29
   0	  30
   0	  36
   0	  37
   0	  38
   0	  40
   0	  41
   0	  44
   0	  46
   0	  47
   0	  54
   0	  57
   0	  58
   0	  59
   1	   2
   1	   3
   1	   6
   1	   9
   1	  12
   1	  13
   1	  15
   1	  16
   1	  18
   1	  21
   1	  22
   1	  23
   1	  24
   1	  25
   1	  26
   1	  27
   1	  28
   1	  31
   1	  32
   1	  33
   1	  34
   1	  35
   1	  36
   1	  37
   1	  39
   1	  40
   1	  44
   1	  45
   1	  46
   1	  52
   1	  55
   1	  58
   2	   5
   2	   6
   2	   7
   2	   8
   2	  11
   2	  12
   2	  13
   2	  14
   2	  15
   2	  18
   2	  19
   2	  20
   2	  22
   2	  23
   2	  24
   2	  25
   2	  27
   2	  28
   2	  31
   2	  32
   2	  33
   2	  40
   2	  42
   2	  43
   2	  44
   2	  45
   2	  47
   2	  49
   2	  53
   2	  54
   2	  55
   2	  56
   2	  58
   3	   4
   3	   6
   3	   7
   3	   9
   3	  11
   3	  15
   3	  18
   3	  20
   3	  22
   3	  26
   3	  27
   3	  29
   3	  30
   3	  31
   3	  32
   3	  37
   3	  38
   3	  40
   3	  43
   3	  45
   3	  50
   3	  51
   3	  52
   3	  55
   3	  56
   3	  58
   3	  59
   4	   6
   4	   7
   4	   8
   4	   9
   4	  10
   4	  11
   4	  13
   4	  15
   4	  18
   4	  19
   4	  21
   4	  22
   4	  23
   4	  24
   4	  27
   4	  28
   4	  29
   4	  30
   4	  34
   4	  36
   4	  39
   4	  41
   4	  42
   4	  43
   4	  44
   4	  46
   4	  49
   4	  50
   4	  53
   4	  54
   4	  55
   4	  57
   4	  58
   5	   9
   5	  10
   5	  14
   5	  19
   5	  21
   5	  22
   5	  26
   5	  27
   5	  28
   5	  31
   5	  34
   5	  35
   5	  38
   5	  39
   5	  40
   5	  44
   5	  45
   5	  49
   5	  50
   5	  51
   5	  53
   5	  54
   5	  55
   5	  57
   5	  58
   5	  59
   6	   7
   6	   9
   6	  11
   6	  13
   6	  16
   6	  21
   6	  22
   6	  24
   6	  27
   6	  28
   6	  30
   6	  32
   6	  33
   6	  35
   6	  37
   6	  38
   6	  39
   6	  40
   6	  41
   6	  42
   6	  44
   6	  46
   6	  47
   6	  48
   6	  49
   6	  50
   6	  52
   7	   9
   7	  10
   7	  11
   7	  12
   7	  14
   7	  18
   7	  19
   7	  20
   7	  21
   7	  30
   7	  33
   7	  35
   7	  36
   7	  37
   7	  40
   7	  43
   7	  44
   7	  45
   7	  46
   7	  48
   7	  49
   7	  52
   7	  56
   7	  58
   7	  59
   8	  10
   8	  11
   8	  13
   8	  14
   8	  16
   8	  19
   8	  20
   8	  22
   8	  24
   8	  25
   8	  26
   8	  27
   8	  28
   8	  30
   8	  31
   8	  32
   8	  35
   8	  38
   8	  39
   8	  41
   8	  44
   8	  48
   8	  49
   8	  52
   8	  55
   8	  56
   8	  58
   9	  10
   9	  11
   9	  12
   9	  16
   9	  18
   9	  19
   9	  23
   9	  24
   9	  26
   9	  29
   9	  31
   9	  32
   9	  33
   9	  37
   9	  40
   9	  41
   9	  43
   9	  45
   9	  47
   9	  48
   9	  54
   9	  55
  10	  11
  10	  12
  10	  15
  10	  16
  10	  17
  10	  20
  10	  23
  10	  24
  10	  27
  10	  30
  10	  31
  10	  32
  10	  33
  10	  34
  10	  40
  10	  44
  10	  45
  10	  49
  10	  50
  10	  51
  10	  52
  10	  55
  11	  12
  11	  13
  11	  14
  11	  15
  11	  16
  11	  17
  11	  18
  11	  19
  11	  22
  11	  24
  11	  27
  11	  28
  11	  29
  11	  30
  11	  31
  11	  36
  11	  40
  11	  41
  11	  42
  11	  43
  11	  44
  11	  47
  11	  50
  11	  51
  11	  53
  12	  14
  12	  15
  12	  16
  12	  17
  12	  20
  12	  23
  12	  25
  12	  26
  12	  28
  12	  29
  12	  33
  12	  35
  12	  39
  12	  43
  12	  45
  12	  47
  12	  48
  12	  50
  12	  56
  12	  58
  12	  59
  13	  14
  13	  15
  13	  16
  13	  17
  13	  18
  13	  20
  13	  21
  13	  22
  13	  23
  13	  24
  13	  25
  13	  26
  13	  28
  13	  29
  13	  31
  13	  32
  13	  34
  13	  38
  13	  41
  13	  42
  13	  43
  13	  45
  13	  48
  13	  50
  13	  51
  13	  55
  13	  57
  13	  59
  14	  17
  14	  19
  14	  21
  14	  22
  14	  23
  14	  25
  14	  26
  14	  27
  14	  30
  14	  31
  14	  32
  14	  33
  14	  35
  14	  36
  14	  37
  14	  41
  14	  42
  14	  43
  14	  44
  14	  45
  14	  48
  14	  49
  14	  50
  14	  52
  14	  54
  14	  55
  14	  59
  15	  17
  15	  19
  15	  20
  15	  21
  15	  23
  15	  24
  15	  25
  15	  29
  15	  33
  15	  35
  15	  37
  15	  38
  15	  42
  15	  43
  15	  47
  15	  48
  15	  49
  15	  51
  15	  54
  15	  57
  16	  18
  16	  20
  16	  25
  16	  30
  16	  32
  16	  33
  16	  34
  16	  38
  16	  40
  16	  41
  16	  43
  16	  44
  16	  45
  16	  47
  16	  48
  16	  49
  16	  51
  16	  56
  16	  59
  17	  19
  17	  20
  17	  22
  17	  24
  17	  27
  17	  28
  17	  30
  17	  31
  17	  32
  17	  35
  17	  36
  17	  38
  17	  41
  17	  42
  17	  43
  17	  47
  17	  49
  17	  51
  17	  52
  17	  56
  17	  59
  18	  23
  18	  24
  18	  25
  18	  28
  18	  30
  18	  36
  18	  37
  18	  38
  18	  39
  18	  43
  18	  44
  18	  48
  18	  55
  18	  56
  18	  58
  19	  20
  19	  24
  19	  26
  19	  27
  19	  30
  19	  33
  19	  34
  19	  38
  19	  39
  19	  42
  19	  47
  19	  48
  19	  50
  19	  56
  19	  57
  19	  58
  19	  59
  20	  21
  20	  24
  20	  25
  20	  26
  20	  28
  20	  32
  20	  34
  20	  35
  20	  36
  20	  43
  20	  45
  20	  47
  20	  48
  20	  49
  20	  51
  20	  53
  20	  54
  20	  55
  21	  22
  21	  24
  21	  25
  21	  27
  21	  28
  21	  29
  21	  31
  21	  32
  21	  34
  21	  35
  21	  39
  21	  40
  21	  41
  21	  44
  21	  45
  21	  48
  21	  52
  21	  53
  21	  55
  21	  57
  21	  58
  21	  59
  22	  23
  22	  26
  22	  29
  22	  30
  22	  32
  22	  33
  22	  34
  22	  37
  22	  39
  22	  40
  22	  44
  22	  45
  22	  47
  22	  49
  22	  50
  22	  51
  22	  52
  22	  53
  22	  54
  22	  55
  23	  26
  23	  27
  23	  29
  23	  38
  23	  39
  23	  40
  23	  41
  23	  42
  23	  43
  23	  44
  23	  46
  23	  47
  23	  48
  23	  49
  23	  50
  23	  52
  23	  53
  23	  56
  23	  57
  23	  59
  24	  25
  24	  28
  24	  29
  24	  30
  24	  32
  24	  34
  24	  35
  24	  38
  24	  41
  24	  43
  24	  44
  24	  45
  24	  46
  24	  48
  24	  49
  24	  50
  24	  52
  24	  53
  24	  54
  24	  55
  24	  58
  24	  59
  25	  26
  25	  27
  25	  28
  25	  30
  25	  32
  25	  33
  25	  34
  25	  37
  25	  40
  25	  42
  25	  44
  25	  45
  25	  49
  25	  50
  25	  51
  25	  53
  25	  55
  25	  57
  25	  59
  26	  27
  26	  28
  26	  32
  26	  38
  26	  42
  26	  44
  26	  47
  26	  48
  26	  52
  26	  53
  26	  54
  26	  56
  27	  28
  27	  29
  27	  32
  27	  34
  27	  35
  27	  36
  27	  38
  27	  40
  27	  42
  27	  45
  27	  48
  27	  49
  27	  50
  27	  54
  27	  55
  27	  56
  27	  59
  28	  30
  28	  31
  28	  32
  28	  33
  28	  34
  28	  35
  28	  36
  28	  39
  28	  40
  28	  44
  28	  46
  28	  47
  28	  48
  28	  49
  28	  56
  28	  57
  28	  58
  28	  59
  29	  30
  29	  32
  29	  36
  29	  38
  29	  42
  29	  44
  29	  50
  29	  53
  29	  54
  29	  55
  29	  56
  29	  57
  29	  58
  30	  32
  30	  34
  30	  36
  30	  39
  30	  40
  30	  41
  30	  48
  30	  51
  30	  52
  30	  54
  30	  55
  30	  56
  30	  58
  30	  59
  31	  34
  31	  41
  31	  46
  31	  48
  31	  54
  32	  36
  32	  37
  32	  38
  32	  39
  32	  40
  32	  44
  32	  47
  32	  48
  32	  49
  32	  50
  32	  51
  32	  54
  32	  55
  32	  56
  32	  57
  32	  58
  32	  59
  33	  34
  33	  35
  33	  37
  33	  39
  33	  40
  33	  41
  33	  42
  33	  50
  33	  51
  33	  52
  33	  56
  33	  57
  34	  38
  34	  39
  34	  40
  34	  41
  34	  42
  34	  44
  34	  48
  34	  49
  34	  50
  34	  51
  34	  54
  34	  56
  34	  57
  34	  58
  34	  59
  35	  36
  35	  37
  35	  39
  35	  40
  35	  43
  35	  44
  35	  49
  35	  51
  35	  52
  35	  59
  36	  39
  36	  40
  36	  41
  36	  45
  36	  47
  36	  48
  36	  49
  36	  51
  36	  52
  36	  54
  36	  57
  37	  40
  37	  42
  37	  43
  37	  44
  37	  45
  37	  46
  37	  49
  37	  50
  37	  52
  37	  53
  37	  54
  37	  56
  37	  57
  37	  59
  38	  39
  38	  40
  38	  42
  38	  44
  38	  45
  38	  46
  38	  47
  38	  49
  38	  54
  38	  55
  38	  56
  38	  58
  39	  42
  39	  43
  39	  45
  39	  46
  39	  48
  39	  51
  39	  52
  40	  43
  40	  47
  40	  52
  40	  55
  40	  56
  40	  59
  41	  43
  41	  45
  41	  46
  41	  49
  41	  51
  41	  53
  41	  55
  41	  56
  41	  57
  41	  58
  42	  43
  42	  44
  42	  45
  42	  48
  42	  49
  42	  51
  42	  52
  42	  56
  42	  57
  42	  58
  42	  59
  43	  44
  43	  48
  43	  49
  43	  51
  43	  53
  43	  54
  43	  55
  43	  56
  43	  57
  43	  58
  43	  59
  44	  45
  44	  46
  44	  48
  44	  49
  44	  52
  44	  53
  44	  54
  44	  55
  44	  57
  44	  59
  45	  46
  45	  48
  45	  50
  45	  51
  45	  54
  45	  57
  46	  48
  46	  51
  46	  52
  46	  53
  46	  55
  46	  58
  46	  59
  47	  48
  47	  50
  47	  51
  47	  52
  47	  59
  48	  49
  48	  50
  48	  52
  48	  53
  48	  55
  48	  57
  48	  58
  49	  50
  49	  52
  49	  54
  49	  55
  49	  57
  49	  58
  50	  53
  50	  54
  50	  56
  50	  58
  51	  53
  51	  57
  51	  58
  51	  59
  52	  53
  52	  55
  52	  56
  52	  57
  52	  58
  53	  54
  53	  55
  53	  56
  53	  58
  53	  59
  54	  59
  55	  56
  55	  57
  56	  57
  57	  58
  57	  59
  58	  59
;
